0
Node Left Objective IInf Best_Integer Best_Bound ItCnt Gap
0+ 0 nan nan 17080.7259 -1708.0726 nan 110.00%
0+ 0 nan nan -66.3573 -1708.0726 nan ---
0 0 -93.0816 11 -66.3573 -93.0816 79 40.27%
0+ 0 nan nan -85.7652 -93.0816 nan 8.53%
0 0 -90.9102 12 -85.7652 Cuts:19 94 6.00%
0 0 -90.4752 13 -85.7652 Cuts:16 108 5.49%
0 0 -90.2601 13 -85.7652 Cuts:24 123 5.24%
0 0 -90.2246 13 -85.7652 Cuts:15 132 5.20%
0 0 -90.1533 14 -85.7652 Cuts:7 147 5.12%
0 0 -90.1179 15 -85.7652 Cuts:7 156 5.08%
0 0 -90.1179 14 -85.7652 MIRcuts:4 158 5.08%
0+ 0 nan nan -86.4772 -90.1179 nan 4.21%
0 2 -90.0569 7 -86.4772 -90.0450 158 4.13%
CPXPARAM_MIP_Cuts_FlowCovers-Gomory-Disjunctive-MIRCut:FlowCovers 0
CPXPARAM_MIP_Cuts_FlowCovers-Gomory-Disjunctive-MIRCut:Gomory 1
CPXPARAM_MIP_Cuts_FlowCovers-Gomory-Disjunctive-MIRCut:Disjunctive 7
CPXPARAM_MIP_Cuts_FlowCovers-Gomory-Disjunctive-MIRCut:MIRCut 0
1
Node Left Objective IInf Best_Integer Best_Bound ItCnt Gap
0+ 0 nan nan 17807.5550 -1780.7555 nan 110.00%
0+ 0 nan nan -246.6070 -1780.7555 nan 622.10%
0 0 -451.0443 22 -246.6070 -451.0443 124 82.90%
0+ 0 nan nan -437.4023 -451.0443 nan 3.12%
0 0 -450.3580 19 -437.4023 Cuts:21 149 2.96%
0+ 0 nan nan -439.5105 -450.3580 nan 2.47%
0 0 -450.0630 20 -439.5105 Cuts:26 162 2.40%
0 0 -449.8730 21 -439.5105 Cuts:13 176 2.36%
0 0 -449.6322 18 -439.5105 Cuts:18 191 2.30%
0 0 -449.5419 19 -439.5105 Cuts:25 215 2.28%
0 0 -449.5402 23 -439.5105 Cuts:7 224 2.28%
0 0 -449.5388 15 -439.5105 MIRcuts:2 226 2.28%
0 0 -449.5388 15 -439.5105 MIRcuts:1 227 2.28%
0+ 0 nan nan -440.3366 -449.5388 nan 2.09%
0+ 0 nan nan -444.6720 -449.5388 nan 1.09%
0 2 -449.4519 13 -444.6720 -449.3743 227 1.06%
CPXPARAM_MIP_Cuts_FlowCovers-Gomory-Disjunctive-MIRCut:FlowCovers 0
CPXPARAM_MIP_Cuts_FlowCovers-Gomory-Disjunctive-MIRCut:Gomory 5
CPXPARAM_MIP_Cuts_FlowCovers-Gomory-Disjunctive-MIRCut:Disjunctive 6
CPXPARAM_MIP_Cuts_FlowCovers-Gomory-Disjunctive-MIRCut:MIRCut 0
2
Node Left Objective IInf Best_Integer Best_Bound ItCnt Gap
0+ 0 nan nan 21992.9672 -2199.2967 nan 110.00%
0+ 0 nan nan -144.9985 -2199.2967 nan ---
0 0 cutoff -144.9985 -144.9985 77 0.00%
0 0 cutoff -144.9985 -144.9985 77 0.00% 0
CPXPARAM_MIP_Cuts_FlowCovers-Gomory-Disjunctive-MIRCut:FlowCovers 0
CPXPARAM_MIP_Cuts_FlowCovers-Gomory-Disjunctive-MIRCut:Gomory 0
CPXPARAM_MIP_Cuts_FlowCovers-Gomory-Disjunctive-MIRCut:Disjunctive 0
CPXPARAM_MIP_Cuts_FlowCovers-Gomory-Disjunctive-MIRCut:MIRCut 0
3
Node Left Objective IInf Best_Integer Best_Bound ItCnt Gap
0+ 0 nan nan 15130.5599 -1513.0560 nan 110.00%
0+ 0 nan nan -319.1991 -1513.0560 nan 374.02%
0 0 -373.2689 13 -319.1991 -373.2689 81 16.94%
0+ 0 nan nan -322.8337 -373.2689 nan 15.62%
0 0 -373.2689 11 -322.8337 Cuts:7 99 15.62%
0 0 -373.1727 18 -322.8337 Cuts:15 112 15.59%
0 0 -373.1127 18 -322.8337 Cuts:10 119 15.57%
0 0 -373.0528 15 -322.8337 Cuts:4 125 15.56%
0 0 -373.0010 16 -322.8337 Cuts:4 129 15.54%
0 0 -372.9423 14 -322.8337 Cuts:4 135 15.52%
0+ 0 nan nan -371.0358 -372.9423 nan 0.51%
0 0 cutoff -371.0358 -371.0358 166 0.00% 0
CPXPARAM_MIP_Cuts_FlowCovers-Gomory-Disjunctive-MIRCut:FlowCovers 0
CPXPARAM_MIP_Cuts_FlowCovers-Gomory-Disjunctive-MIRCut:Gomory 2
CPXPARAM_MIP_Cuts_FlowCovers-Gomory-Disjunctive-MIRCut:Disjunctive 12
CPXPARAM_MIP_Cuts_FlowCovers-Gomory-Disjunctive-MIRCut:MIRCut 0
4
Node Left Objective IInf Best_Integer Best_Bound ItCnt Gap
0+ 0 nan nan 17229.3640 -1722.9364 nan 110.00%
0+ 0 nan nan -67.4145 -1722.9364 nan ---
0 0 -89.1646 11 -67.4145 -89.1646 97 32.26%
0 0 -88.4817 11 -67.4145 Cuts:28 108 31.25%
0+ 0 nan nan -85.5988 -88.4817 nan 3.37%
0 0 -88.3112 11 -85.5988 Cuts:11 118 3.17%
0 0 -88.1932 10 -85.5988 Cuts:8 130 3.03%
0 0 -87.8957 9 -85.5988 Cuts:5 139 2.68%
0 0 -87.8728 8 -85.5988 Cuts:5 142 2.66%
0 0 -87.8401 9 -85.5988 MIRcuts:11 146 2.62%
0 0 -87.8084 10 -85.5988 MIRcuts:6 151 2.58%
0 2 -87.5117 4 -85.5988 -87.4673 151 2.18%
CPXPARAM_MIP_Cuts_FlowCovers-Gomory-Disjunctive-MIRCut:FlowCovers 0
CPXPARAM_MIP_Cuts_FlowCovers-Gomory-Disjunctive-MIRCut:Gomory 6
CPXPARAM_MIP_Cuts_FlowCovers-Gomory-Disjunctive-MIRCut:Disjunctive 5
CPXPARAM_MIP_Cuts_FlowCovers-Gomory-Disjunctive-MIRCut:MIRCut 0
5
Node Left Objective IInf Best_Integer Best_Bound ItCnt Gap
0+ 0 nan nan 19297.4075 -1929.7408 nan 110.00%
0+ 0 nan nan -216.7443 -1929.7408 nan 790.33%
0 0 -495.8139 18 -216.7443 -495.8139 104 128.76%
0+ 0 nan nan -360.6431 -495.8139 nan 37.48%
0 0 -495.2407 22 -360.6431 Cuts:30 123 37.32%
0+ 0 nan nan -363.5780 -495.2407 nan 36.21%
0 0 -495.1482 26 -363.5780 Cuts:24 150 36.19%
0 0 -494.9382 25 -363.5780 Cuts:18 168 36.13%
0 0 -494.7027 24 -363.5780 Cuts:12 190 36.07%
0 0 -494.6292 26 -363.5780 Cuts:11 207 36.04%
0 0 -494.5931 24 -363.5780 Cuts:4 217 36.03%
0 0 -494.5607 24 -363.5780 MIRcuts:9 227 36.03%
0 0 -494.4776 21 -363.5780 Cuts:12 243 36.00%
0 0 -494.4564 22 -363.5780 Cuts:7 257 36.00%
0+ 0 nan nan -485.2916 -494.4564 nan 1.89%
0 2 -494.4564 22 -485.2916 -494.4558 257 1.89%
CPXPARAM_MIP_Cuts_FlowCovers-Gomory-Disjunctive-MIRCut:FlowCovers 1
CPXPARAM_MIP_Cuts_FlowCovers-Gomory-Disjunctive-MIRCut:Gomory 9
CPXPARAM_MIP_Cuts_FlowCovers-Gomory-Disjunctive-MIRCut:Disjunctive 6
CPXPARAM_MIP_Cuts_FlowCovers-Gomory-Disjunctive-MIRCut:MIRCut 0
6
Node Left Objective IInf Best_Integer Best_Bound ItCnt Gap
0+ 0 nan nan 17283.6857 -1728.3686 nan 110.00%
0+ 0 nan nan -89.3561 -1728.3686 nan ---
0 0 -92.8995 6 -89.3561 -92.8995 83 3.97%
0 0 -92.8995 4 -89.3561 Cuts:9 90 3.97%
0+ 0 nan nan -92.7479 -92.8995 nan 0.16%
0 0 -92.8906 10 -92.7479 Fract:1 101 0.15%
0+ 0 nan nan -92.8162 -92.8906 nan 0.08%
0 0 -92.8534 2 -92.8162 Fract:1 112 0.04%
0 0 cutoff -92.8162 -92.8534 120 0.04% 0
CPXPARAM_MIP_Cuts_FlowCovers-Gomory-Disjunctive-MIRCut:FlowCovers 0
CPXPARAM_MIP_Cuts_FlowCovers-Gomory-Disjunctive-MIRCut:Gomory 0
CPXPARAM_MIP_Cuts_FlowCovers-Gomory-Disjunctive-MIRCut:Disjunctive 2
CPXPARAM_MIP_Cuts_FlowCovers-Gomory-Disjunctive-MIRCut:MIRCut 0
7
Node Left Objective IInf Best_Integer Best_Bound ItCnt Gap
0+ 0 nan nan 18737.7240 -1873.9213 nan 110.00%
0+ 0 nan nan -349.2878 -1873.9213 nan 436.50%
0 0 -476.7132 19 -349.2878 -476.7132 92 36.48%
0+ 0 nan nan -351.7851 -476.7132 nan 35.51%
0 0 -475.9972 21 -351.7851 Cuts:16 121 35.31%
0 0 -475.5790 23 -351.7851 Cuts:19 137 35.19%
0 0 -475.3669 22 -351.7851 Cuts:24 154 35.13%
0 0 -475.2354 20 -351.7851 Cuts:7 173 35.09%
0 0 -475.1892 21 -351.7851 Cuts:12 187 35.08%
0 0 -475.0344 22 -351.7851 Cuts:18 223 35.04%
0 0 -475.0292 22 -351.7851 MIRcuts:11 236 35.03%
0 0 -474.9972 21 -351.7851 Cuts:9 247 35.02%
0+ 0 nan nan -469.6446 -474.9972 nan 1.14%
0+ 0 nan nan -470.1406 -474.9972 nan 1.03%
0 2 -474.9972 21 -470.1406 -474.9891 247 1.03%
CPXPARAM_MIP_Cuts_FlowCovers-Gomory-Disjunctive-MIRCut:FlowCovers 1
CPXPARAM_MIP_Cuts_FlowCovers-Gomory-Disjunctive-MIRCut:Gomory 7
CPXPARAM_MIP_Cuts_FlowCovers-Gomory-Disjunctive-MIRCut:Disjunctive 8
CPXPARAM_MIP_Cuts_FlowCovers-Gomory-Disjunctive-MIRCut:MIRCut 0
8
Node Left Objective IInf Best_Integer Best_Bound ItCnt Gap
0+ 0 nan nan 20324.0135 -2032.4014 nan 110.00%
0+ 0 nan nan -89.4132 -2032.4014 nan ---
0 0 -103.1383 11 -89.4132 -103.1383 78 15.35%
0 0 -102.3893 10 -89.4132 Cuts:18 92 14.51%
0+ 0 nan nan -100.8155 -102.3893 nan 1.56%
0 0 -102.3368 11 -100.8155 Cuts:11 102 1.51%
0+ 0 nan nan -102.0140 -102.3368 nan 0.32%
0 0 -102.3207 10 -102.0140 Cuts:2 109 0.30%
0 0 -102.3175 10 -102.0140 Fract:1 113 0.30%
0 0 -102.3149 8 -102.0140 Cuts:2 117 0.29%
0 2 -102.2033 2 -102.0140 -102.1816 117 0.16%
CPXPARAM_MIP_Cuts_FlowCovers-Gomory-Disjunctive-MIRCut:FlowCovers 0
CPXPARAM_MIP_Cuts_FlowCovers-Gomory-Disjunctive-MIRCut:Gomory 1
CPXPARAM_MIP_Cuts_FlowCovers-Gomory-Disjunctive-MIRCut:Disjunctive 7
CPXPARAM_MIP_Cuts_FlowCovers-Gomory-Disjunctive-MIRCut:MIRCut 0
9
Node Left Objective IInf Best_Integer Best_Bound ItCnt Gap
0+ 0 nan nan 19574.3912 -1957.4391 nan 110.00%
0+ 0 nan nan -340.7562 -1957.4391 nan 474.44%
0 0 -481.4397 15 -340.7562 -481.4397 75 41.29%
0+ 0 nan nan -474.2321 -481.4397 nan 1.52%
0 0 -480.5570 16 -474.2321 Cuts:22 92 1.33%
0 0 -480.3074 13 -474.2321 Cuts:21 107 1.28%
0+ 0 nan nan -474.3320 -480.3074 nan 1.26%
0 0 -479.9598 11 -474.3320 Cuts:19 119 1.19%
0 0 -479.8060 15 -474.3320 Cuts:20 161 1.15%
0 0 -479.7231 18 -474.3320 Cuts:22 181 1.14%
0 0 -479.7230 16 -474.3320 MIRcuts:14 190 1.14%
0+ 0 nan nan -474.3610 -479.7230 nan 1.13%
0 0 -479.7212 11 -474.3610 Cuts:5 194 1.13%
0+ 0 nan nan -475.2447 -479.7212 nan 0.94%
0+ 0 nan nan -476.4084 -479.7212 nan 0.70%
0 2 -479.7212 11 -476.4084 -479.7195 194 0.70%
CPXPARAM_MIP_Cuts_FlowCovers-Gomory-Disjunctive-MIRCut:FlowCovers 0
CPXPARAM_MIP_Cuts_FlowCovers-Gomory-Disjunctive-MIRCut:Gomory 8
CPXPARAM_MIP_Cuts_FlowCovers-Gomory-Disjunctive-MIRCut:Disjunctive 6
CPXPARAM_MIP_Cuts_FlowCovers-Gomory-Disjunctive-MIRCut:MIRCut 0
10
Node Left Objective IInf Best_Integer Best_Bound ItCnt Gap
0+ 0 nan nan 27187.3215 -2718.7321 nan 110.00%
0+ 0 nan nan 10.9576 -2718.7321 nan ---
0 0 -173.4759 5 10.9576 -173.4759 75 ---
0+ 0 nan nan 7.7729 -173.4759 nan ---
0+ 0 nan nan -171.3795 -173.4759 nan 1.22%
0 0 -173.4759 3 -171.3795 Cuts:8 81 1.22%
0 0 -173.4759 7 -171.3795 Cuts:8 92 1.22%
0 0 -173.4759 5 -171.3795 Cuts:12 102 1.22%
0 2 -173.4759 3 -171.3795 -173.4759 102 1.22%
CPXPARAM_MIP_Cuts_FlowCovers-Gomory-Disjunctive-MIRCut:FlowCovers 0
CPXPARAM_MIP_Cuts_FlowCovers-Gomory-Disjunctive-MIRCut:Gomory 0
CPXPARAM_MIP_Cuts_FlowCovers-Gomory-Disjunctive-MIRCut:Disjunctive 8
CPXPARAM_MIP_Cuts_FlowCovers-Gomory-Disjunctive-MIRCut:MIRCut 7
11
Node Left Objective IInf Best_Integer Best_Bound ItCnt Gap
0+ 0 nan nan 22470.7077 -2247.0708 nan 110.00%
0+ 0 nan nan -339.2451 -2247.0708 nan 562.37%
0 0 -573.6242 10 -339.2451 -573.6242 79 69.09%
0+ 0 nan nan -570.2156 -573.6242 nan 0.60%
0 0 -573.6242 13 -570.2156 Cuts:6 94 0.60%
0 0 -573.5316 18 -570.2156 Cuts:10 112 0.58%
0 0 -573.3210 18 -570.2156 Cuts:6 132 0.54%
0 0 -573.2926 17 -570.2156 Cuts:8 141 0.54%
0 0 -573.1721 17 -570.2156 Cuts:9 160 0.52%
0 0 -573.1446 17 -570.2156 Fract:2 165 0.51%
0+ 0 nan nan -570.2307 -573.1446 nan 0.51%
0 2 -572.8348 6 -570.2307 -572.6966 165 0.43%
CPXPARAM_MIP_Cuts_FlowCovers-Gomory-Disjunctive-MIRCut:FlowCovers 0
CPXPARAM_MIP_Cuts_FlowCovers-Gomory-Disjunctive-MIRCut:Gomory 2
CPXPARAM_MIP_Cuts_FlowCovers-Gomory-Disjunctive-MIRCut:Disjunctive 10
CPXPARAM_MIP_Cuts_FlowCovers-Gomory-Disjunctive-MIRCut:MIRCut 0
12
Node Left Objective IInf Best_Integer Best_Bound ItCnt Gap
0+ 0 nan nan 21290.0070 -2129.0007 nan 110.00%
0+ 0 nan nan -108.2542 -2129.0007 nan ---
0 0 -125.5769 9 -108.2542 -125.5769 93 16.00%
0+ 0 nan nan -118.3639 -125.5769 nan 6.09%
0 0 -124.7545 11 -118.3639 Cuts:16 108 5.40%
0 0 -124.6213 11 -118.3639 Cuts:17 124 5.29%
0+ 0 nan nan -121.2111 -124.6213 nan 2.81%
0 0 -124.4386 12 -121.2111 Cuts:10 129 2.66%
0 0 -124.0271 11 -121.2111 Cuts:12 140 2.32%
0 0 -123.8895 11 -121.2111 Cuts:9 151 2.21%
0 0 -123.8817 11 -121.2111 Cuts:4 154 2.20%
0 0 -123.8803 10 -121.2111 MIRcuts:2 157 2.20%
0 0 -123.8723 8 -121.2111 MIRcuts:1 159 2.20%
0 2 -123.5248 8 -121.2111 -123.5248 159 1.91%
CPXPARAM_MIP_Cuts_FlowCovers-Gomory-Disjunctive-MIRCut:FlowCovers 0
CPXPARAM_MIP_Cuts_FlowCovers-Gomory-Disjunctive-MIRCut:Gomory 4
CPXPARAM_MIP_Cuts_FlowCovers-Gomory-Disjunctive-MIRCut:Disjunctive 4
CPXPARAM_MIP_Cuts_FlowCovers-Gomory-Disjunctive-MIRCut:MIRCut 0
13
Node Left Objective IInf Best_Integer Best_Bound ItCnt Gap
0+ 0 nan nan 18711.1828 -1871.1183 nan 110.00%
0+ 0 nan nan -86.7463 -1871.1183 nan ---
0 0 -468.4244 16 -86.7463 -468.4244 90 439.99%
0+ 0 nan nan -462.1230 -468.4244 nan 1.36%
0 0 -468.0134 20 -462.1230 Cuts:24 109 1.27%
0 0 -467.6860 18 -462.1230 Cuts:34 140 1.20%
0 0 -467.4409 23 -462.1230 Cuts:23 167 1.15%
0 0 -467.3304 20 -462.1230 Cuts:19 198 1.13%
0 0 -467.3241 24 -462.1230 Cuts:26 223 1.13%
0 0 -467.3213 22 -462.1230 Cuts:22 247 1.12%
0+ 0 nan nan -462.3653 -467.3213 nan 1.07%
0 2 -467.3213 20 -462.3653 -467.3178 247 1.07%
CPXPARAM_MIP_Cuts_FlowCovers-Gomory-Disjunctive-MIRCut:FlowCovers 2
CPXPARAM_MIP_Cuts_FlowCovers-Gomory-Disjunctive-MIRCut:Gomory 3
CPXPARAM_MIP_Cuts_FlowCovers-Gomory-Disjunctive-MIRCut:Disjunctive 10
CPXPARAM_MIP_Cuts_FlowCovers-Gomory-Disjunctive-MIRCut:MIRCut 0
14
Node Left Objective IInf Best_Integer Best_Bound ItCnt Gap
0+ 0 nan nan 22739.1838 -2273.9184 nan 110.00%
0+ 0 nan nan -144.2844 -2273.9184 nan ---
0 0 -146.9071 10 -144.2844 -146.9071 80 1.82%
0 0 -146.8581 6 -144.2844 Cuts:8 85 1.78%
0 0 -146.7191 10 -144.2844 Cuts:14 97 1.69%
0 0 -146.7191 6 -144.2844 Cuts:16 108 1.69%
0+ 0 nan nan -145.9432 -146.7191 nan 0.53%
0 0 -146.7191 6 -145.9432 Cuts:8 116 0.53%
0 0 -146.6955 6 -145.9432 Cuts:8 128 0.52%
0+ 0 nan nan -146.6955 -146.6955 nan 0.00%
0 0 cutoff -146.6955 -146.6955 128 0.00% 0
CPXPARAM_MIP_Cuts_FlowCovers-Gomory-Disjunctive-MIRCut:FlowCovers 0
CPXPARAM_MIP_Cuts_FlowCovers-Gomory-Disjunctive-MIRCut:Gomory 1
CPXPARAM_MIP_Cuts_FlowCovers-Gomory-Disjunctive-MIRCut:Disjunctive 10
CPXPARAM_MIP_Cuts_FlowCovers-Gomory-Disjunctive-MIRCut:MIRCut 0
15
Node Left Objective IInf Best_Integer Best_Bound ItCnt Gap
0+ 0 nan nan 20293.1236 -2029.3124 nan 110.00%
0+ 0 nan nan -243.7454 -2029.3124 nan 732.55%
0 0 -518.7322 13 -243.7454 -518.7322 83 112.82%
0+ 0 nan nan -315.8010 -518.7322 nan 64.26%
0+ 0 nan nan -450.6273 -518.7322 nan 15.11%
0 0 -518.6226 21 -450.6273 Cuts:24 118 15.09%
0 0 -518.5641 19 -450.6273 Cuts:31 128 15.08%
0 0 -518.4774 23 -450.6273 Cuts:17 139 15.06%
0 0 -518.3932 22 -450.6273 Cuts:18 157 15.04%
0 0 -518.3543 21 -450.6273 Cuts:22 176 15.03%
0 0 -518.3517 21 -450.6273 Cuts:4 182 15.03%
0 0 -518.3300 22 -450.6273 MIRcuts:9 190 15.02%
0+ 0 nan nan -514.2581 -518.3300 nan 0.79%
0 2 -518.2637 14 -514.2581 -518.2522 190 0.78%
CPXPARAM_MIP_Cuts_FlowCovers-Gomory-Disjunctive-MIRCut:FlowCovers 1
CPXPARAM_MIP_Cuts_FlowCovers-Gomory-Disjunctive-MIRCut:Gomory 10
CPXPARAM_MIP_Cuts_FlowCovers-Gomory-Disjunctive-MIRCut:Disjunctive 11
CPXPARAM_MIP_Cuts_FlowCovers-Gomory-Disjunctive-MIRCut:MIRCut 0
16
Node Left Objective IInf Best_Integer Best_Bound ItCnt Gap
0+ 0 nan nan 21872.1954 -2187.2195 nan 110.00%
0+ 0 nan nan -112.2220 -2187.2195 nan ---
0 0 -126.4787 11 -112.2220 -126.4787 89 12.70%
0 0 -126.1346 12 -112.2220 Cuts:17 103 12.40%
0+ 0 nan nan -124.3570 -126.1346 nan 1.43%
0 0 -126.0664 13 -124.3570 Cuts:17 109 1.37%
0 0 -125.8659 13 -124.3570 Cuts:10 119 1.21%
0 0 -125.8379 13 -124.3570 Cuts:5 128 1.19%
0 0 -125.7744 13 -124.3570 Cuts:5 137 1.14%
0 0 -125.7744 13 -124.3570 MIRcuts:3 140 1.14%
0 0 -125.7707 12 -124.3570 MIRcuts:4 145 1.14%
0 2 -125.7707 12 -124.3570 -125.7595 145 1.13%
CPXPARAM_MIP_Cuts_FlowCovers-Gomory-Disjunctive-MIRCut:FlowCovers 0
CPXPARAM_MIP_Cuts_FlowCovers-Gomory-Disjunctive-MIRCut:Gomory 3
CPXPARAM_MIP_Cuts_FlowCovers-Gomory-Disjunctive-MIRCut:Disjunctive 4
CPXPARAM_MIP_Cuts_FlowCovers-Gomory-Disjunctive-MIRCut:MIRCut 0
17
Node Left Objective IInf Best_Integer Best_Bound ItCnt Gap
0+ 0 nan nan 16639.6111 -1663.9611 nan 110.00%
0+ 0 nan nan -399.5270 -1663.9611 nan 316.48%
0 0 -404.1656 14 -399.5270 -404.1656 83 1.16%
0 0 -403.5301 14 -399.5270 Cuts:19 100 1.00%
0 0 -403.3319 14 -399.5270 Cuts:26 120 0.95%
0 0 -403.2519 13 -399.5270 Cuts:14 137 0.93%
0 0 -403.1773 15 -399.5270 Cuts:14 147 0.91%
0+ 0 nan nan -400.1632 -403.1773 nan 0.75%
0 0 -403.1247 14 -400.1632 Cuts:9 158 0.74%
0 0 -403.1247 15 -400.1632 MIRcuts:4 163 0.74%
0 0 -403.1247 14 -400.1632 MIRcuts:3 165 0.74%
0+ 0 nan nan -400.3654 -403.1247 nan 0.69%
0+ 0 nan nan -401.6537 -403.1247 nan 0.37%
0 2 -403.1245 9 -401.6537 -403.0968 165 0.36%
CPXPARAM_MIP_Cuts_FlowCovers-Gomory-Disjunctive-MIRCut:FlowCovers 0
CPXPARAM_MIP_Cuts_FlowCovers-Gomory-Disjunctive-MIRCut:Gomory 2
CPXPARAM_MIP_Cuts_FlowCovers-Gomory-Disjunctive-MIRCut:Disjunctive 7
CPXPARAM_MIP_Cuts_FlowCovers-Gomory-Disjunctive-MIRCut:MIRCut 0
18
Node Left Objective IInf Best_Integer Best_Bound ItCnt Gap
0+ 0 nan nan 18821.9021 -1882.1902 nan 110.00%
0+ 0 nan nan -97.2991 -1882.1902 nan ---
0 0 -99.0172 8 -97.2991 -99.0172 77 1.77%
0 0 -99.0172 6 -97.2991 Cuts:12 90 1.77%
0 0 -99.0161 13 -97.2991 Cuts:10 99 1.76%
0 0 -99.0035 4 -97.2991 Cuts:5 105 1.75%
0+ 0 nan nan -98.9995 -99.0035 nan 0.00%
CPXPARAM_MIP_Cuts_FlowCovers-Gomory-Disjunctive-MIRCut:FlowCovers 0
CPXPARAM_MIP_Cuts_FlowCovers-Gomory-Disjunctive-MIRCut:Gomory 0
CPXPARAM_MIP_Cuts_FlowCovers-Gomory-Disjunctive-MIRCut:Disjunctive 10
CPXPARAM_MIP_Cuts_FlowCovers-Gomory-Disjunctive-MIRCut:MIRCut 0
19
Node Left Objective IInf Best_Integer Best_Bound ItCnt Gap
0+ 0 nan nan 19012.1137 -1901.2740 nan 110.00%
0+ 0 nan nan -411.3325 -1901.2740 nan 362.22%
0 0 -474.7865 8 -411.3325 -474.7865 76 15.43%
0+ 0 nan nan -411.4107 -474.7865 nan 15.40%
0+ 0 nan nan -472.5175 -474.7865 nan 0.48%
0 0 -474.7865 5 -472.5175 Cuts:10 90 0.48%
0+ 0 nan nan -473.4153 -474.7865 nan 0.29%
0 0 -474.7865 5 -473.4153 Cuts:7 99 0.29%
0 0 -474.7796 6 -473.4153 Cuts:7 105 0.29%
0+ 0 nan nan -474.7791 -474.7796 nan 0.00%
CPXPARAM_MIP_Cuts_FlowCovers-Gomory-Disjunctive-MIRCut:FlowCovers 0
CPXPARAM_MIP_Cuts_FlowCovers-Gomory-Disjunctive-MIRCut:Gomory 1
CPXPARAM_MIP_Cuts_FlowCovers-Gomory-Disjunctive-MIRCut:Disjunctive 11
CPXPARAM_MIP_Cuts_FlowCovers-Gomory-Disjunctive-MIRCut:MIRCut 0
20
Node Left Objective IInf Best_Integer Best_Bound ItCnt Gap
0+ 0 nan nan 15115.0246 -1511.5025 nan 110.00%
0+ 0 nan nan -66.4447 -1511.5025 nan ---
0 0 -90.2455 12 -66.4447 -90.2455 91 35.82%
0 0 -89.5533 13 -66.4447 Cuts:25 104 34.78%
0+ 0 nan nan -88.1244 -89.5533 nan 1.62%
0 0 -89.1611 11 -88.1244 Cuts:28 116 1.18%
0 0 -89.0373 14 -88.1244 Cuts:18 127 1.04%
0 0 -88.8662 11 -88.1244 Cuts:10 142 0.84%
0 0 -88.8528 10 -88.1244 Cuts:4 148 0.83%
0 0 -88.8521 11 -88.1244 MIRcuts:3 152 0.83%
0 0 -88.8511 7 -88.1244 MIRcuts:3 155 0.82%
0 0 cutoff -88.1244 -88.8511 155 0.82% 0
CPXPARAM_MIP_Cuts_FlowCovers-Gomory-Disjunctive-MIRCut:FlowCovers 0
CPXPARAM_MIP_Cuts_FlowCovers-Gomory-Disjunctive-MIRCut:Gomory 3
CPXPARAM_MIP_Cuts_FlowCovers-Gomory-Disjunctive-MIRCut:Disjunctive 6
CPXPARAM_MIP_Cuts_FlowCovers-Gomory-Disjunctive-MIRCut:MIRCut 0
21
Node Left Objective IInf Best_Integer Best_Bound ItCnt Gap
0+ 0 nan nan 15333.4248 -1533.3425 nan 110.00%
0+ 0 nan nan -221.9629 -1533.3425 nan 590.81%
0 0 -397.2126 26 -221.9629 -397.2126 110 78.95%
0+ 0 nan nan -235.8252 -397.2126 nan 68.44%
0 0 -395.5607 29 -235.8252 Cuts:20 128 67.73%
0+ 0 nan nan -240.6087 -395.5607 nan 64.40%
0 0 -394.8446 28 -240.6087 Cuts:24 140 64.10%
0 0 -394.6435 28 -240.6087 Cuts:18 155 64.02%
0+ 0 nan nan -283.3457 -394.6435 nan 39.28%
0 0 -394.2157 28 -283.3457 Cuts:19 172 39.13%
0 0 -393.6867 30 -283.3457 Cuts:14 196 38.94%
0+ 0 nan nan -284.2537 -393.6867 nan 38.50%
0 0 -393.6074 30 -284.2537 Cuts:14 213 38.47%
0 0 -393.5423 31 -284.2537 MIRcuts:11 224 38.45%
0+ 0 nan nan -336.4258 -393.5423 nan 16.98%
0 0 -393.5228 31 -336.4258 MIRcuts:3 228 16.97%
0 0 -393.5196 31 -336.4258 MIRcuts:2 230 16.97%
0+ 0 nan nan -382.1643 -393.5196 nan 2.97%
0+ 0 nan nan -383.0759 -393.5196 nan 2.73%
0+ 0 nan nan -383.5207 -393.5196 nan 2.61%
0 2 -393.4906 28 -383.5207 -393.4774 230 2.60%
CPXPARAM_MIP_Cuts_FlowCovers-Gomory-Disjunctive-MIRCut:FlowCovers 0
CPXPARAM_MIP_Cuts_FlowCovers-Gomory-Disjunctive-MIRCut:Gomory 10
CPXPARAM_MIP_Cuts_FlowCovers-Gomory-Disjunctive-MIRCut:Disjunctive 8
CPXPARAM_MIP_Cuts_FlowCovers-Gomory-Disjunctive-MIRCut:MIRCut 0
22
Node Left Objective IInf Best_Integer Best_Bound ItCnt Gap
0+ 0 nan nan 15579.5689 -1557.9569 nan 110.00%
0+ 0 nan nan -75.9857 -1557.9569 nan ---
0 0 -96.9770 4 -75.9857 -96.9770 80 27.63%
0+ 0 nan nan -96.9770 -96.9770 nan 0.00%
0 0 cutoff -96.9770 -96.9770 80 0.00% 0
CPXPARAM_MIP_Cuts_FlowCovers-Gomory-Disjunctive-MIRCut:FlowCovers 0
CPXPARAM_MIP_Cuts_FlowCovers-Gomory-Disjunctive-MIRCut:Gomory 0
CPXPARAM_MIP_Cuts_FlowCovers-Gomory-Disjunctive-MIRCut:Disjunctive 0
CPXPARAM_MIP_Cuts_FlowCovers-Gomory-Disjunctive-MIRCut:MIRCut 0
23
Node Left Objective IInf Best_Integer Best_Bound ItCnt Gap
0+ 0 nan nan 16097.8588 -1609.8715 nan 110.00%
0+ 0 nan nan -135.1706 -1609.8715 nan ---
0 0 -420.0439 21 -135.1706 -420.0439 92 210.75%
0+ 0 nan nan -205.3944 -420.0439 nan 104.51%
0+ 0 nan nan -308.1357 -420.0439 nan 36.32%
0 0 -418.3470 22 -308.1357 Cuts:17 116 35.77%
0 0 -417.0582 22 -308.1357 Cuts:24 137 35.35%
0 0 -416.1625 27 -308.1357 Cuts:43 171 35.06%
0 0 -415.4395 23 -308.1357 Cuts:19 194 34.82%
0 0 -414.8606 23 -308.1357 Cuts:17 224 34.64%
0+ 0 nan nan -308.3476 -414.8606 nan 34.54%
0 0 -414.3755 23 -308.3476 Cuts:12 252 34.39%
0+ 0 nan nan -358.1455 -414.3755 nan 15.70%
0 0 -414.3518 27 -358.1455 Cuts:19 262 15.69%
0+ 0 nan nan -358.6380 -414.3518 nan 15.53%
0 0 -414.1422 24 -358.6380 Cuts:17 285 15.48%
0 0 -414.0117 21 -358.6380 Cuts:21 315 15.44%
0 0 -413.9492 21 -358.6380 Cuts:10 333 15.42%
0 0 -413.9349 23 -358.6380 MIRcuts:7 347 15.42%
0+ 0 nan nan -408.6265 -413.9349 nan 1.30%
0 2 -413.9349 23 -408.6265 -413.9314 347 1.30%
CPXPARAM_MIP_Cuts_FlowCovers-Gomory-Disjunctive-MIRCut:FlowCovers 3
CPXPARAM_MIP_Cuts_FlowCovers-Gomory-Disjunctive-MIRCut:Gomory 14
CPXPARAM_MIP_Cuts_FlowCovers-Gomory-Disjunctive-MIRCut:Disjunctive 5
CPXPARAM_MIP_Cuts_FlowCovers-Gomory-Disjunctive-MIRCut:MIRCut 0
24
Node Left Objective IInf Best_Integer Best_Bound ItCnt Gap
0+ 0 nan nan 18436.4445 -1843.6444 nan 110.00%
0+ 0 nan nan -94.2493 -1843.6444 nan ---
0 0 -115.3546 13 -94.2493 -115.3546 85 22.39%
0+ 0 nan nan -112.0044 -115.3546 nan 2.99%
0 0 -114.5508 8 -112.0044 Cuts:16 93 2.27%
0 0 -114.3124 7 -112.0044 Cuts:9 104 2.06%
0 0 -114.2307 7 -112.0044 Cuts:5 112 1.99%
0 0 -114.1381 7 -112.0044 Fract:5 121 1.91%
0 0 -114.1146 8 -112.0044 Cuts:3 130 1.88%
0 0 -114.0624 8 -112.0044 Fract:3 136 1.84%
0 2 -113.6263 4 -112.0044 -113.4819 136 1.32%
CPXPARAM_MIP_Cuts_FlowCovers-Gomory-Disjunctive-MIRCut:FlowCovers 0
CPXPARAM_MIP_Cuts_FlowCovers-Gomory-Disjunctive-MIRCut:Gomory 0
CPXPARAM_MIP_Cuts_FlowCovers-Gomory-Disjunctive-MIRCut:Disjunctive 5
CPXPARAM_MIP_Cuts_FlowCovers-Gomory-Disjunctive-MIRCut:MIRCut 0
25
Node Left Objective IInf Best_Integer Best_Bound ItCnt Gap
0+ 0 nan nan 18806.7169 -1880.6717 nan 110.00%
0+ 0 nan nan -288.0183 -1880.6717 nan 552.97%
0 0 -492.8236 25 -288.0183 -492.8236 100 71.11%
0+ 0 nan nan -362.9258 -492.8236 nan 35.79%
0 0 -489.7530 27 -362.9258 Cuts:24 137 34.95%
0 0 -489.4479 29 -362.9258 Cuts:12 151 34.86%
0 0 -489.2668 29 -362.9258 Cuts:10 167 34.81%
0 0 -489.0660 28 -362.9258 Cuts:10 182 34.76%
0 0 -489.0086 27 -362.9258 Cuts:7 190 34.74%
0 0 -488.9453 29 -362.9258 Cuts:6 201 34.72%
0 0 -488.9323 30 -362.9258 MIRcuts:9 207 34.72%
0 0 -488.8992 29 -362.9258 MIRcuts:5 214 34.71%
0+ 0 nan nan -475.4002 -488.8992 nan 2.84%
0+ 0 nan nan -478.9737 -488.8992 nan 2.07%
0 2 -488.8992 29 -478.9737 -488.8940 214 2.07%
CPXPARAM_MIP_Cuts_FlowCovers-Gomory-Disjunctive-MIRCut:FlowCovers 0
CPXPARAM_MIP_Cuts_FlowCovers-Gomory-Disjunctive-MIRCut:Gomory 8
CPXPARAM_MIP_Cuts_FlowCovers-Gomory-Disjunctive-MIRCut:Disjunctive 10
CPXPARAM_MIP_Cuts_FlowCovers-Gomory-Disjunctive-MIRCut:MIRCut 0
26
Node Left Objective IInf Best_Integer Best_Bound ItCnt Gap
0+ 0 nan nan 18555.8907 -1855.7233 nan 110.00%
0+ 0 nan nan -104.0034 -1855.7233 nan ---
0 0 -115.9815 5 -104.0034 -115.9815 67 11.52%
0+ 0 nan nan -115.9815 -115.9815 nan 0.00%
0 0 cutoff -115.9815 -115.9815 67 0.00% 0
CPXPARAM_MIP_Cuts_FlowCovers-Gomory-Disjunctive-MIRCut:FlowCovers 0
CPXPARAM_MIP_Cuts_FlowCovers-Gomory-Disjunctive-MIRCut:Gomory 0
CPXPARAM_MIP_Cuts_FlowCovers-Gomory-Disjunctive-MIRCut:Disjunctive 0
CPXPARAM_MIP_Cuts_FlowCovers-Gomory-Disjunctive-MIRCut:MIRCut 0
27
Node Left Objective IInf Best_Integer Best_Bound ItCnt Gap
0+ 0 nan nan 17101.2086 -1710.7893 nan 110.00%
0+ 0 nan nan -257.8104 -1710.7893 nan 563.58%
0 0 -441.6815 19 -257.8104 -441.6815 93 71.32%
0+ 0 nan nan -327.4274 -441.6815 nan 34.89%
0 0 -439.8147 23 -327.4274 Cuts:16 119 34.32%
0 0 -439.1809 18 -327.4274 Cuts:16 139 34.13%
0+ 0 nan nan -327.5556 -439.1809 nan 34.08%
0 0 -438.4808 24 -327.5556 Cuts:7 161 33.86%
0+ 0 nan nan -327.6314 -438.4808 nan 33.83%
0 0 -438.0592 26 -327.6314 Cuts:31 178 33.70%
0 0 -437.7128 23 -327.6314 Cuts:16 208 33.60%
0 0 -437.6041 21 -327.6314 MIRcuts:7 228 33.57%
0 0 -437.5298 21 -327.6314 Cuts:4 238 33.54%
0 0 -437.4934 23 -327.6314 Cuts:7 247 33.53%
0 0 -437.4620 21 -327.6314 Cuts:4 254 33.52%
0 0 -437.4321 21 -327.6314 MIRcuts:3 260 33.51%
0+ 0 nan nan -432.0209 -437.4321 nan 1.25%
0 2 -437.4321 21 -432.0209 -437.4196 260 1.25%
CPXPARAM_MIP_Cuts_FlowCovers-Gomory-Disjunctive-MIRCut:FlowCovers 5
CPXPARAM_MIP_Cuts_FlowCovers-Gomory-Disjunctive-MIRCut:Gomory 13
CPXPARAM_MIP_Cuts_FlowCovers-Gomory-Disjunctive-MIRCut:Disjunctive 5
CPXPARAM_MIP_Cuts_FlowCovers-Gomory-Disjunctive-MIRCut:MIRCut 0
28
Node Left Objective IInf Best_Integer Best_Bound ItCnt Gap
0+ 0 nan nan 23195.9038 -2319.5904 nan 110.00%
0+ 0 nan nan -104.6712 -2319.5904 nan ---
0 0 -120.0533 11 -104.6712 -120.0533 77 14.70%
0 0 -119.2335 11 -104.6712 Cuts:24 92 13.91%
0+ 0 nan nan -115.2003 -119.2335 nan 3.50%
0 0 -119.0341 11 -115.2003 Cuts:10 105 3.33%
0 0 -118.8145 10 -115.2003 Cuts:9 116 3.14%
0 0 -118.6798 9 -115.2003 Fract:4 123 3.02%
0+ 0 nan nan -117.2287 -118.6798 nan 1.24%
0 0 -118.6341 9 -117.2287 Fract:5 133 1.20%
0 2 -118.4807 3 -117.2287 -118.4267 133 1.02%
CPXPARAM_MIP_Cuts_FlowCovers-Gomory-Disjunctive-MIRCut:FlowCovers 0
CPXPARAM_MIP_Cuts_FlowCovers-Gomory-Disjunctive-MIRCut:Gomory 1
CPXPARAM_MIP_Cuts_FlowCovers-Gomory-Disjunctive-MIRCut:Disjunctive 7
CPXPARAM_MIP_Cuts_FlowCovers-Gomory-Disjunctive-MIRCut:MIRCut 0
29
Node Left Objective IInf Best_Integer Best_Bound ItCnt Gap
0+ 0 nan nan 18473.6572 -1847.3657 nan 110.00%
0+ 0 nan nan -427.6235 -1847.3657 nan 332.01%
0 0 -444.7353 17 -427.6235 -444.7353 96 4.00%
0 0 -444.0203 17 -427.6235 Cuts:27 123 3.83%
0 0 -443.6503 20 -427.6235 Cuts:32 138 3.75%
0 0 -443.4565 20 -427.6235 Cuts:27 163 3.70%
0 0 -443.3690 22 -427.6235 Cuts:23 182 3.68%
0 0 -443.3068 20 -427.6235 Cuts:16 195 3.67%
0 0 -443.2589 19 -427.6235 Cuts:12 208 3.66%
0 0 -443.2577 16 -427.6235 MIRcuts:13 217 3.66%
0 0 -443.2544 7 -427.6235 MIRcuts:4 220 3.66%
0+ 0 nan nan -441.1471 -443.2544 nan 0.48%
0 0 -443.2539 7 -441.1471 MIRcuts:1 221 0.48%
0 2 -443.0379 5 -441.1471 -442.9198 221 0.40%
CPXPARAM_MIP_Cuts_FlowCovers-Gomory-Disjunctive-MIRCut:FlowCovers 0
CPXPARAM_MIP_Cuts_FlowCovers-Gomory-Disjunctive-MIRCut:Gomory 8
CPXPARAM_MIP_Cuts_FlowCovers-Gomory-Disjunctive-MIRCut:Disjunctive 5
CPXPARAM_MIP_Cuts_FlowCovers-Gomory-Disjunctive-MIRCut:MIRCut 0
30
Node Left Objective IInf Best_Integer Best_Bound ItCnt Gap
0+ 0 nan nan 20012.4297 -2001.2537 nan 110.00%
0+ 0 nan nan -82.7793 -2001.2537 nan ---
0 0 -93.4019 2 -82.7793 -93.4019 66 12.83%
0+ 0 nan nan -93.4019 -93.4019 nan 0.00%
CPXPARAM_MIP_Cuts_FlowCovers-Gomory-Disjunctive-MIRCut:FlowCovers 0
CPXPARAM_MIP_Cuts_FlowCovers-Gomory-Disjunctive-MIRCut:Gomory 0
CPXPARAM_MIP_Cuts_FlowCovers-Gomory-Disjunctive-MIRCut:Disjunctive 0
CPXPARAM_MIP_Cuts_FlowCovers-Gomory-Disjunctive-MIRCut:MIRCut 0
31
Node Left Objective IInf Best_Integer Best_Bound ItCnt Gap
0+ 0 nan nan 20469.5526 -2046.9553 nan 110.00%
0+ 0 nan nan -497.9458 -2046.9553 nan 311.08%
0 0 -506.7396 12 -497.9458 -506.7396 92 1.77%
0+ 0 nan nan -501.8232 -506.7396 nan 0.98%
0 0 -506.7114 5 -501.8232 Cuts:3 104 0.97%
0+ 0 nan nan -506.6867 -506.7114 nan 0.00%
CPXPARAM_MIP_Cuts_FlowCovers-Gomory-Disjunctive-MIRCut:FlowCovers 0
CPXPARAM_MIP_Cuts_FlowCovers-Gomory-Disjunctive-MIRCut:Gomory 0
CPXPARAM_MIP_Cuts_FlowCovers-Gomory-Disjunctive-MIRCut:Disjunctive 2
CPXPARAM_MIP_Cuts_FlowCovers-Gomory-Disjunctive-MIRCut:MIRCut 0
32
Node Left Objective IInf Best_Integer Best_Bound ItCnt Gap
0+ 0 nan nan 13911.0729 -1391.1073 nan 110.00%
0+ 0 nan nan -39.6136 -1391.1073 nan ---
0 0 -68.2827 6 -39.6136 -68.2827 77 72.37%
0+ 0 nan nan -65.9578 -68.2827 nan 3.52%
0 0 -66.4980 6 -65.9578 Fract:1 86 0.82%
0 0 cutoff -65.9578 99 0.00% 0 0
CPXPARAM_MIP_Cuts_FlowCovers-Gomory-Disjunctive-MIRCut:FlowCovers 0
CPXPARAM_MIP_Cuts_FlowCovers-Gomory-Disjunctive-MIRCut:Gomory 0
CPXPARAM_MIP_Cuts_FlowCovers-Gomory-Disjunctive-MIRCut:Disjunctive 0
CPXPARAM_MIP_Cuts_FlowCovers-Gomory-Disjunctive-MIRCut:MIRCut 0
33
Node Left Objective IInf Best_Integer Best_Bound ItCnt Gap
0+ 0 nan nan 16748.4512 -1674.8451 nan 110.00%
0+ 0 nan nan -180.4833 -1674.8451 nan 827.98%
0 0 -425.8102 14 -180.4833 -425.8102 120 135.93%
0+ 0 nan nan -362.2668 -425.8102 nan 17.54%
0 0 -425.0122 21 -362.2668 Cuts:24 143 17.32%
0 0 -424.8345 23 -362.2668 Cuts:41 183 17.27%
0 0 -424.6137 28 -362.2668 Cuts:42 214 17.21%
0 0 -424.3736 26 -362.2668 Cuts:21 233 17.14%
0+ 0 nan nan -364.6391 -424.3736 nan 16.38%
0 0 -424.2166 25 -364.6391 Cuts:34 251 16.34%
0 0 -424.1372 26 -364.6391 Cuts:20 265 16.32%
0 0 -424.0267 26 -364.6391 Cuts:15 279 16.29%
0 0 -423.9848 24 -364.6391 Cuts:18 294 16.28%
0 0 -423.9547 26 -364.6391 Cuts:18 312 16.27%
0 0 -423.9381 27 -364.6391 MIRcuts:7 327 16.26%
0+ 0 nan nan -416.3040 -423.9381 nan 1.83%
0 2 -423.9114 26 -416.3040 -423.9021 327 1.83%
CPXPARAM_MIP_Cuts_FlowCovers-Gomory-Disjunctive-MIRCut:FlowCovers 0
CPXPARAM_MIP_Cuts_FlowCovers-Gomory-Disjunctive-MIRCut:Gomory 14
CPXPARAM_MIP_Cuts_FlowCovers-Gomory-Disjunctive-MIRCut:Disjunctive 8
CPXPARAM_MIP_Cuts_FlowCovers-Gomory-Disjunctive-MIRCut:MIRCut 0
34
Node Left Objective IInf Best_Integer Best_Bound ItCnt Gap
0+ 0 nan nan 19055.0102 -1905.5010 nan 110.00%
0+ 0 nan nan -113.0294 -1905.5010 nan ---
0 0 -121.1718 5 -113.0294 -121.1718 75 7.20%
0+ 0 nan nan -117.8797 -121.1718 nan 2.79%
0 0 -121.1718 10 -117.8797 Cuts:8 92 2.79%
0+ 0 nan nan -119.8794 -121.1718 nan 1.08%
0 0 -121.1551 11 -119.8794 Fract:3 104 1.06%
0 0 -121.0629 12 -119.8794 Cuts:9 111 0.99%
0+ 0 nan nan -120.8524 -121.0629 nan 0.17%
0 0 -121.0138 3 -120.8524 Fract:1 122 0.13%
0+ 0 nan nan -120.8524 -121.0138 nan 0.13%
0 0 -121.0138 3 -120.8524 -121.0138 200 0.13%
0 0 -120.8953 2 -120.8524 Fract:2 204 0.04%
0 0 cutoff -120.8524 208 0.00% 0 0
CPXPARAM_MIP_Cuts_FlowCovers-Gomory-Disjunctive-MIRCut:FlowCovers 0
CPXPARAM_MIP_Cuts_FlowCovers-Gomory-Disjunctive-MIRCut:Gomory 0
CPXPARAM_MIP_Cuts_FlowCovers-Gomory-Disjunctive-MIRCut:Disjunctive 2
CPXPARAM_MIP_Cuts_FlowCovers-Gomory-Disjunctive-MIRCut:MIRCut 0
35
Node Left Objective IInf Best_Integer Best_Bound ItCnt Gap
0+ 0 nan nan 16780.9114 -1678.3241 nan 110.00%
0+ 0 nan nan -187.6361 -1678.3241 nan 794.46%
0 0 -420.9670 14 -187.6361 -420.9670 75 124.35%
0+ 0 nan nan -253.1346 -420.9670 nan 66.30%
0+ 0 nan nan -417.9530 -420.9670 nan 0.72%
0 0 -420.8922 17 -417.9530 Cuts:12 101 0.70%
0 0 -420.5560 20 -417.9530 Cuts:13 115 0.62%
0 0 -420.3363 19 -417.9530 Cuts:22 130 0.57%
0 0 -420.0155 20 -417.9530 Cuts:26 153 0.49%
0 0 -419.6798 14 -417.9530 Cuts:23 189 0.41%
0 0 -419.5240 13 -417.9530 Cuts:11 206 0.38%
0 0 -419.3820 17 -417.9530 Cuts:11 220 0.34%
0 0 -419.3321 19 -417.9530 Cuts:16 230 0.33%
0 0 -419.2350 17 -417.9530 MIRcuts:3 245 0.31%
0 0 -419.2280 15 -417.9530 MIRcuts:3 253 0.31%
0 0 -419.2073 16 -417.9530 MIRcuts:4 257 0.30%
0+ 0 nan nan -417.9530 -419.2073 nan 0.30%
0 0 -418.2205 5 -417.9530 -418.2205 319 0.06%
0 0 cutoff -417.9530 325 0.00% 0 0
CPXPARAM_MIP_Cuts_FlowCovers-Gomory-Disjunctive-MIRCut:FlowCovers 1
CPXPARAM_MIP_Cuts_FlowCovers-Gomory-Disjunctive-MIRCut:Gomory 13
CPXPARAM_MIP_Cuts_FlowCovers-Gomory-Disjunctive-MIRCut:Disjunctive 4
CPXPARAM_MIP_Cuts_FlowCovers-Gomory-Disjunctive-MIRCut:MIRCut 0
36
Node Left Objective IInf Best_Integer Best_Bound ItCnt Gap
0+ 0 nan nan 22941.7465 -2294.1747 nan 110.00%
0+ 0 nan nan -123.5349 -2294.1747 nan ---
0 0 -146.5944 12 -123.5349 -146.5944 96 18.67%
0 0 -145.3394 6 -123.5349 Cuts:18 111 17.65%
0+ 0 nan nan -134.7614 -145.3394 nan 7.85%
0 0 -144.6805 7 -134.7614 Fract:3 121 7.36%
0+ 0 nan nan -140.1787 -144.6805 nan 3.21%
0 0 -144.2870 5 -140.1787 Cuts:5 131 2.93%
0 0 -144.1002 5 -140.1787 Cuts:5 139 2.80%
0 0 -144.0724 5 -140.1787 Cuts:3 146 2.78%
0 2 -144.0027 5 -140.1787 -143.9424 146 2.68%
CPXPARAM_MIP_Cuts_FlowCovers-Gomory-Disjunctive-MIRCut:FlowCovers 0
CPXPARAM_MIP_Cuts_FlowCovers-Gomory-Disjunctive-MIRCut:Gomory 0
CPXPARAM_MIP_Cuts_FlowCovers-Gomory-Disjunctive-MIRCut:Disjunctive 5
CPXPARAM_MIP_Cuts_FlowCovers-Gomory-Disjunctive-MIRCut:MIRCut 0
37
Node Left Objective IInf Best_Integer Best_Bound ItCnt Gap
0+ 0 nan nan 22253.7712 -2225.3771 nan 110.00%
0+ 0 nan nan -192.7597 -2225.3771 nan ---
0 0 -583.6149 25 -192.7597 -583.6149 103 202.77%
0+ 0 nan nan -350.5396 -583.6149 nan 66.49%
0 0 -581.6318 27 -350.5396 Cuts:28 127 65.92%
0 0 -580.0398 29 -350.5396 Cuts:21 152 65.47%
0 0 -579.5442 27 -350.5396 Cuts:14 168 65.33%
0+ 0 nan nan -355.5276 -579.5442 nan 63.01%
0 0 -579.1161 28 -355.5276 Cuts:11 196 62.89%
0 0 -578.9578 29 -355.5276 Cuts:6 208 62.84%
0 0 -578.8240 28 -355.5276 Cuts:7 222 62.81%
0 0 -578.7638 27 -355.5276 MIRcuts:7 231 62.79%
0 0 -578.7254 27 -355.5276 MIRcuts:8 242 62.78%
0 0 -578.6875 30 -355.5276 MIRcuts:2 247 62.77%
0+ 0 nan nan -561.4252 -578.6875 nan 3.07%
0+ 0 nan nan -564.0528 -578.6875 nan 2.59%
0 2 -578.6875 30 -564.0528 -578.6743 247 2.59%
CPXPARAM_MIP_Cuts_FlowCovers-Gomory-Disjunctive-MIRCut:FlowCovers 1
CPXPARAM_MIP_Cuts_FlowCovers-Gomory-Disjunctive-MIRCut:Gomory 9
CPXPARAM_MIP_Cuts_FlowCovers-Gomory-Disjunctive-MIRCut:Disjunctive 8
CPXPARAM_MIP_Cuts_FlowCovers-Gomory-Disjunctive-MIRCut:MIRCut 0
38
Node Left Objective IInf Best_Integer Best_Bound ItCnt Gap
0+ 0 nan nan 19121.8104 -1912.4176 nan 110.00%
0+ 0 nan nan -95.8861 -1912.4176 nan ---
0 0 -109.3384 7 -95.8861 -109.3384 75 14.03%
0+ 0 nan nan -109.3384 -109.3384 nan 0.00%
0 0 cutoff -109.3384 -109.3384 75 0.00% 0
CPXPARAM_MIP_Cuts_FlowCovers-Gomory-Disjunctive-MIRCut:FlowCovers 0
CPXPARAM_MIP_Cuts_FlowCovers-Gomory-Disjunctive-MIRCut:Gomory 0
CPXPARAM_MIP_Cuts_FlowCovers-Gomory-Disjunctive-MIRCut:Disjunctive 0
CPXPARAM_MIP_Cuts_FlowCovers-Gomory-Disjunctive-MIRCut:MIRCut 0
39
Node Left Objective IInf Best_Integer Best_Bound ItCnt Gap
0+ 0 nan nan 22617.4474 -2261.8298 nan 110.00%
0+ 0 nan nan -361.4650 -2261.8298 nan 525.74%
0 0 -588.7435 24 -361.4650 -588.7435 97 62.88%
0+ 0 nan nan -434.4180 -588.7435 nan 35.52%
0 0 -586.1037 20 -434.4180 Cuts:32 128 34.92%
0 0 -585.0057 24 -434.4180 Cuts:17 147 34.66%
0 0 -583.5220 22 -434.4180 Cuts:24 169 34.32%
0 0 -583.2624 22 -434.4180 Cuts:29 188 34.26%
0 0 -583.0635 22 -434.4180 Cuts:18 205 34.22%
0 0 -582.8491 25 -434.4180 Cuts:20 231 34.17%
0 0 -582.6833 24 -434.4180 Cuts:12 258 34.13%
0 0 -582.3874 25 -434.4180 Cuts:11 284 34.06%
0 0 -582.1056 23 -434.4180 Cuts:14 307 34.00%
0 0 -581.7842 27 -434.4180 Cuts:15 339 33.92%
0 0 -581.7067 28 -434.4180 Cuts:10 352 33.90%
0 0 -581.6404 24 -434.4180 Cuts:10 367 33.89%
0 0 -581.6389 24 -434.4180 MIRcuts:2 373 33.89%
0+ 0 nan nan -569.0399 -581.6389 nan 2.21%
0+ 0 nan nan -570.9809 -581.6389 nan 1.87%
0+ 0 nan nan -572.1358 -581.6389 nan 1.66%
0 2 -581.6389 24 -572.1358 -581.6114 373 1.66%
CPXPARAM_MIP_Cuts_FlowCovers-Gomory-Disjunctive-MIRCut:FlowCovers 11
CPXPARAM_MIP_Cuts_FlowCovers-Gomory-Disjunctive-MIRCut:Gomory 12
CPXPARAM_MIP_Cuts_FlowCovers-Gomory-Disjunctive-MIRCut:Disjunctive 7
CPXPARAM_MIP_Cuts_FlowCovers-Gomory-Disjunctive-MIRCut:MIRCut 0
